1069
7362
8467
7349
1356
9921
7000
4463
7263
6383
6946
9197
4918
4717
6942
2860
7104
4733
9280
4093
7317
2665
8343
6664
2493
1983
6703
7622
504
4980
6382
1116
9200
9193
5932
8198
6713
9952
6548
4775
6262
2323
6503
5098
9575
9028
9648
2280
3516
3128
